# Objective value = 7
x0,1_1 0
x0,1_2 1
x0,1_8 0
x0,1_10 0
x0,1_13 0
x0,1_21 0
x0,1_23 0
x0,1_26 0
x0,1_27 0
x0,1_37 0
x0,1_40 0
x0,1_50 0
x0,2_1 0
x0,2_2 0
x0,2_8 0
x0,2_10 1
x0,2_13 0
x0,2_21 0
x0,2_23 0
x0,2_26 0
x0,2_27 0
x0,2_37 0
x0,2_40 0
x0,2_50 0
x0,3_1 0
x0,3_2 0
x0,3_8 0
x0,3_10 0
x0,3_13 0
x0,3_21 0
x0,3_23 1
x0,3_26 0
x0,3_27 0
x0,3_37 0
x0,3_40 0
x0,3_50 0
x0,4_1 0
x0,4_2 0
x0,4_8 0
x0,4_10 0
x0,4_13 0
x0,4_21 0
x0,4_23 0
x0,4_26 0
x0,4_27 0
x0,4_37 1
x0,4_40 0
x0,4_50 0
x0,5_1 0
x0,5_2 0
x0,5_8 0
x0,5_10 0
x0,5_13 0
x0,5_21 0
x0,5_23 0
x0,5_26 0
x0,5_27 0
x0,5_37 0
x0,5_40 0
x0,5_50 0
x0,6_1 0
x0,6_2 0
x0,6_8 0
x0,6_10 0
x0,6_13 0
x0,6_21 0
x0,6_23 0
x0,6_26 0
x0,6_27 0
x0,6_37 0
x0,6_40 0
x0,6_50 1
x0,7_1 0
x0,7_2 0
x0,7_8 0
x0,7_10 0
x0,7_13 0
x0,7_21 0
x0,7_23 0
x0,7_26 0
x0,7_27 0
x0,7_37 0
x0,7_40 0
x0,7_50 0
x0,8_1 0
x0,8_2 0
x0,8_8 0
x0,8_10 0
x0,8_13 0
x0,8_21 0
x0,8_23 0
x0,8_26 0
x0,8_27 0
x0,8_37 0
x0,8_40 0
x0,8_50 0
x0,9_1 0
x0,9_2 0
x0,9_8 0
x0,9_10 0
x0,9_13 0
x0,9_21 0
x0,9_23 0
x0,9_26 0
x0,9_27 0
x0,9_37 0
x0,9_40 0
x0,9_50 0
x0,10_1 0
x0,10_2 0
x0,10_8 0
x0,10_10 0
x0,10_13 0
x0,10_21 0
x0,10_23 0
x0,10_26 0
x0,10_27 0
x0,10_37 0
x0,10_40 0
x0,10_50 0
x0,11_1 0
x0,11_2 0
x0,11_8 0
x0,11_10 0
x0,11_13 0
x0,11_21 0
x0,11_23 0
x0,11_26 0
x0,11_27 0
x0,11_37 0
x0,11_40 0
x0,11_50 0
x0,12_1 0
x0,12_2 0
x0,12_8 0
x0,12_10 0
x0,12_13 0
x0,12_21 0
x0,12_23 0
x0,12_26 0
x0,12_27 0
x0,12_37 0
x0,12_40 0
x0,12_50 0
x0,13_1 0
x0,13_2 0
x0,13_8 0
x0,13_10 0
x0,13_13 0
x0,13_21 0
x0,13_23 0
x0,13_26 0
x0,13_27 0
x0,13_37 0
x0,13_40 0
x0,13_50 0
x0,14_1 0
x0,14_2 0
x0,14_8 0
x0,14_10 0
x0,14_13 0
x0,14_21 0
x0,14_23 0
x0,14_26 0
x0,14_27 0
x0,14_37 0
x0,14_40 0
x0,14_50 0
x1,2_1 0
x1,2_2 0
x1,2_8 1
x1,2_10 0
x1,2_13 0
x1,2_21 0
x1,2_23 0
x1,2_26 0
x1,2_27 0
x1,2_37 0
x1,2_40 0
x1,2_50 0
x1,3_1 0
x1,3_2 0
x1,3_8 0
x1,3_10 0
x1,3_13 0
x1,3_21 1
x1,3_23 0
x1,3_26 0
x1,3_27 0
x1,3_37 0
x1,3_40 0
x1,3_50 0
x1,4_1 0
x1,4_2 0
x1,4_8 0
x1,4_10 0
x1,4_13 0
x1,4_21 0
x1,4_23 0
x1,4_26 0
x1,4_27 0
x1,4_37 0
x1,4_40 0
x1,4_50 0
x1,5_1 0
x1,5_2 0
x1,5_8 0
x1,5_10 0
x1,5_13 0
x1,5_21 0
x1,5_23 0
x1,5_26 0
x1,5_27 0
x1,5_37 0
x1,5_40 0
x1,5_50 0
x1,6_1 0
x1,6_2 0
x1,6_8 0
x1,6_10 0
x1,6_13 0
x1,6_21 0
x1,6_23 0
x1,6_26 0
x1,6_27 0
x1,6_37 0
x1,6_40 0
x1,6_50 0
x1,7_1 0
x1,7_2 0
x1,7_8 0
x1,7_10 0
x1,7_13 0
x1,7_21 0
x1,7_23 0
x1,7_26 0
x1,7_27 0
x1,7_37 0
x1,7_40 0
x1,7_50 0
x1,8_1 0
x1,8_2 0
x1,8_8 0
x1,8_10 0
x1,8_13 0
x1,8_21 0
x1,8_23 0
x1,8_26 0
x1,8_27 0
x1,8_37 0
x1,8_40 0
x1,8_50 0
x1,9_1 0
x1,9_2 0
x1,9_8 0
x1,9_10 0
x1,9_13 0
x1,9_21 0
x1,9_23 0
x1,9_26 0
x1,9_27 0
x1,9_37 0
x1,9_40 0
x1,9_50 0
x1,10_1 0
x1,10_2 0
x1,10_8 0
x1,10_10 0
x1,10_13 0
x1,10_21 0
x1,10_23 0
x1,10_26 0
x1,10_27 0
x1,10_37 0
x1,10_40 0
x1,10_50 0
x1,11_1 0
x1,11_2 0
x1,11_8 0
x1,11_10 0
x1,11_13 0
x1,11_21 0
x1,11_23 0
x1,11_26 0
x1,11_27 0
x1,11_37 0
x1,11_40 0
x1,11_50 0
x1,12_1 0
x1,12_2 0
x1,12_8 0
x1,12_10 0
x1,12_13 0
x1,12_21 0
x1,12_23 0
x1,12_26 0
x1,12_27 0
x1,12_37 0
x1,12_40 0
x1,12_50 0
x1,13_1 0
x1,13_2 0
x1,13_8 0
x1,13_10 0
x1,13_13 0
x1,13_21 0
x1,13_23 0
x1,13_26 0
x1,13_27 0
x1,13_37 0
x1,13_40 0
x1,13_50 0
x1,14_1 0
x1,14_2 0
x1,14_8 0
x1,14_10 0
x1,14_13 0
x1,14_21 0
x1,14_23 0
x1,14_26 0
x1,14_27 0
x1,14_37 0
x1,14_40 0
x1,14_50 0
x2,3_1 0
x2,3_2 0
x2,3_8 0
x2,3_10 0
x2,3_13 1
x2,3_21 0
x2,3_23 0
x2,3_26 0
x2,3_27 0
x2,3_37 0
x2,3_40 0
x2,3_50 0
x2,4_1 0
x2,4_2 0
x2,4_8 0
x2,4_10 0
x2,4_13 0
x2,4_21 0
x2,4_23 0
x2,4_26 0
x2,4_27 1
x2,4_37 0
x2,4_40 0
x2,4_50 0
x2,5_1 0
x2,5_2 0
x2,5_8 0
x2,5_10 0
x2,5_13 0
x2,5_21 0
x2,5_23 0
x2,5_26 0
x2,5_27 0
x2,5_37 0
x2,5_40 0
x2,5_50 0
x2,6_1 0
x2,6_2 0
x2,6_8 0
x2,6_10 0
x2,6_13 0
x2,6_21 0
x2,6_23 0
x2,6_26 0
x2,6_27 0
x2,6_37 0
x2,6_40 1
x2,6_50 0
x2,7_1 0
x2,7_2 0
x2,7_8 0
x2,7_10 0
x2,7_13 0
x2,7_21 0
x2,7_23 0
x2,7_26 0
x2,7_27 0
x2,7_37 0
x2,7_40 0
x2,7_50 0
x2,8_1 0
x2,8_2 0
x2,8_8 0
x2,8_10 0
x2,8_13 0
x2,8_21 0
x2,8_23 0
x2,8_26 0
x2,8_27 0
x2,8_37 0
x2,8_40 0
x2,8_50 0
x2,9_1 0
x2,9_2 0
x2,9_8 0
x2,9_10 0
x2,9_13 0
x2,9_21 0
x2,9_23 0
x2,9_26 0
x2,9_27 0
x2,9_37 0
x2,9_40 0
x2,9_50 0
x2,10_1 0
x2,10_2 0
x2,10_8 0
x2,10_10 0
x2,10_13 0
x2,10_21 0
x2,10_23 0
x2,10_26 0
x2,10_27 0
x2,10_37 0
x2,10_40 0
x2,10_50 0
x2,11_1 0
x2,11_2 0
x2,11_8 0
x2,11_10 0
x2,11_13 0
x2,11_21 0
x2,11_23 0
x2,11_26 0
x2,11_27 0
x2,11_37 0
x2,11_40 0
x2,11_50 0
x2,12_1 0
x2,12_2 0
x2,12_8 0
x2,12_10 0
x2,12_13 0
x2,12_21 0
x2,12_23 0
x2,12_26 0
x2,12_27 0
x2,12_37 0
x2,12_40 0
x2,12_50 0
x2,13_1 0
x2,13_2 0
x2,13_8 0
x2,13_10 0
x2,13_13 0
x2,13_21 0
x2,13_23 0
x2,13_26 0
x2,13_27 0
x2,13_37 0
x2,13_40 0
x2,13_50 0
x2,14_1 0
x2,14_2 0
x2,14_8 0
x2,14_10 0
x2,14_13 0
x2,14_21 0
x2,14_23 0
x2,14_26 0
x2,14_27 0
x2,14_37 0
x2,14_40 0
x2,14_50 0
x3,4_1 0
x3,4_2 0
x3,4_8 0
x3,4_10 0
x3,4_13 0
x3,4_21 0
x3,4_23 0
x3,4_26 0
x3,4_27 0
x3,4_37 0
x3,4_40 0
x3,4_50 0
x3,5_1 0
x3,5_2 0
x3,5_8 0
x3,5_10 0
x3,5_13 0
x3,5_21 0
x3,5_23 0
x3,5_26 1
x3,5_27 0
x3,5_37 0
x3,5_40 0
x3,5_50 0
x3,6_1 0
x3,6_2 0
x3,6_8 0
x3,6_10 0
x3,6_13 0
x3,6_21 0
x3,6_23 0
x3,6_26 0
x3,6_27 1
x3,6_37 0
x3,6_40 0
x3,6_50 0
x3,7_1 0
x3,7_2 0
x3,7_8 0
x3,7_10 0
x3,7_13 0
x3,7_21 0
x3,7_23 0
x3,7_26 0
x3,7_27 0
x3,7_37 0
x3,7_40 0
x3,7_50 0
x3,8_1 0
x3,8_2 0
x3,8_8 0
x3,8_10 0
x3,8_13 0
x3,8_21 0
x3,8_23 0
x3,8_26 0
x3,8_27 0
x3,8_37 0
x3,8_40 0
x3,8_50 0
x3,9_1 0
x3,9_2 0
x3,9_8 0
x3,9_10 0
x3,9_13 0
x3,9_21 0
x3,9_23 0
x3,9_26 0
x3,9_27 0
x3,9_37 0
x3,9_40 0
x3,9_50 0
x3,10_1 0
x3,10_2 0
x3,10_8 0
x3,10_10 0
x3,10_13 0
x3,10_21 0
x3,10_23 0
x3,10_26 0
x3,10_27 0
x3,10_37 0
x3,10_40 0
x3,10_50 0
x3,11_1 0
x3,11_2 0
x3,11_8 0
x3,11_10 0
x3,11_13 0
x3,11_21 0
x3,11_23 0
x3,11_26 0
x3,11_27 0
x3,11_37 0
x3,11_40 0
x3,11_50 0
x3,12_1 0
x3,12_2 0
x3,12_8 0
x3,12_10 0
x3,12_13 0
x3,12_21 0
x3,12_23 0
x3,12_26 0
x3,12_27 0
x3,12_37 0
x3,12_40 0
x3,12_50 0
x3,13_1 0
x3,13_2 0
x3,13_8 0
x3,13_10 0
x3,13_13 0
x3,13_21 0
x3,13_23 0
x3,13_26 0
x3,13_27 0
x3,13_37 0
x3,13_40 0
x3,13_50 0
x3,14_1 0
x3,14_2 0
x3,14_8 0
x3,14_10 0
x3,14_13 0
x3,14_21 0
x3,14_23 0
x3,14_26 0
x3,14_27 0
x3,14_37 0
x3,14_40 0
x3,14_50 0
x4,5_1 0
x4,5_2 0
x4,5_8 0
x4,5_10 0
x4,5_13 0
x4,5_21 0
x4,5_23 0
x4,5_26 0
x4,5_27 0
x4,5_37 0
x4,5_40 0
x4,5_50 0
x4,6_1 0
x4,6_2 0
x4,6_8 0
x4,6_10 0
x4,6_13 1
x4,6_21 0
x4,6_23 0
x4,6_26 0
x4,6_27 0
x4,6_37 0
x4,6_40 0
x4,6_50 0
x4,7_1 0
x4,7_2 0
x4,7_8 0
x4,7_10 0
x4,7_13 0
x4,7_21 0
x4,7_23 0
x4,7_26 0
x4,7_27 0
x4,7_37 0
x4,7_40 0
x4,7_50 0
x4,8_1 0
x4,8_2 0
x4,8_8 0
x4,8_10 0
x4,8_13 0
x4,8_21 0
x4,8_23 0
x4,8_26 0
x4,8_27 0
x4,8_37 0
x4,8_40 0
x4,8_50 0
x4,9_1 0
x4,9_2 0
x4,9_8 0
x4,9_10 0
x4,9_13 0
x4,9_21 0
x4,9_23 0
x4,9_26 0
x4,9_27 0
x4,9_37 0
x4,9_40 0
x4,9_50 0
x4,10_1 0
x4,10_2 0
x4,10_8 0
x4,10_10 0
x4,10_13 0
x4,10_21 0
x4,10_23 0
x4,10_26 0
x4,10_27 0
x4,10_37 0
x4,10_40 0
x4,10_50 0
x4,11_1 0
x4,11_2 0
x4,11_8 0
x4,11_10 0
x4,11_13 0
x4,11_21 0
x4,11_23 0
x4,11_26 0
x4,11_27 0
x4,11_37 0
x4,11_40 0
x4,11_50 0
x4,12_1 0
x4,12_2 0
x4,12_8 0
x4,12_10 0
x4,12_13 0
x4,12_21 0
x4,12_23 0
x4,12_26 0
x4,12_27 0
x4,12_37 0
x4,12_40 0
x4,12_50 0
x4,13_1 0
x4,13_2 0
x4,13_8 0
x4,13_10 0
x4,13_13 0
x4,13_21 0
x4,13_23 0
x4,13_26 0
x4,13_27 0
x4,13_37 0
x4,13_40 0
x4,13_50 0
x4,14_1 0
x4,14_2 0
x4,14_8 0
x4,14_10 0
x4,14_13 0
x4,14_21 0
x4,14_23 0
x4,14_26 0
x4,14_27 0
x4,14_37 0
x4,14_40 0
x4,14_50 0
x5,6_1 1
x5,6_2 0
x5,6_8 0
x5,6_10 0
x5,6_13 0
x5,6_21 0
x5,6_23 0
x5,6_26 0
x5,6_27 0
x5,6_37 0
x5,6_40 0
x5,6_50 0
x5,7_1 0
x5,7_2 0
x5,7_8 0
x5,7_10 0
x5,7_13 0
x5,7_21 0
x5,7_23 0
x5,7_26 0
x5,7_27 0
x5,7_37 0
x5,7_40 0
x5,7_50 0
x5,8_1 0
x5,8_2 0
x5,8_8 0
x5,8_10 0
x5,8_13 0
x5,8_21 0
x5,8_23 0
x5,8_26 0
x5,8_27 0
x5,8_37 0
x5,8_40 0
x5,8_50 0
x5,9_1 0
x5,9_2 0
x5,9_8 0
x5,9_10 0
x5,9_13 0
x5,9_21 0
x5,9_23 0
x5,9_26 0
x5,9_27 0
x5,9_37 0
x5,9_40 0
x5,9_50 0
x5,10_1 0
x5,10_2 0
x5,10_8 0
x5,10_10 0
x5,10_13 0
x5,10_21 0
x5,10_23 0
x5,10_26 0
x5,10_27 0
x5,10_37 0
x5,10_40 0
x5,10_50 0
x5,11_1 0
x5,11_2 0
x5,11_8 0
x5,11_10 0
x5,11_13 0
x5,11_21 0
x5,11_23 0
x5,11_26 0
x5,11_27 0
x5,11_37 0
x5,11_40 0
x5,11_50 0
x5,12_1 0
x5,12_2 0
x5,12_8 0
x5,12_10 0
x5,12_13 0
x5,12_21 0
x5,12_23 0
x5,12_26 0
x5,12_27 0
x5,12_37 0
x5,12_40 0
x5,12_50 0
x5,13_1 0
x5,13_2 0
x5,13_8 0
x5,13_10 0
x5,13_13 0
x5,13_21 0
x5,13_23 0
x5,13_26 0
x5,13_27 0
x5,13_37 0
x5,13_40 0
x5,13_50 0
x5,14_1 0
x5,14_2 0
x5,14_8 0
x5,14_10 0
x5,14_13 0
x5,14_21 0
x5,14_23 0
x5,14_26 0
x5,14_27 0
x5,14_37 0
x5,14_40 0
x5,14_50 0
x6,7_1 0
x6,7_2 0
x6,7_8 0
x6,7_10 0
x6,7_13 0
x6,7_21 0
x6,7_23 0
x6,7_26 0
x6,7_27 0
x6,7_37 0
x6,7_40 0
x6,7_50 0
x6,8_1 0
x6,8_2 0
x6,8_8 0
x6,8_10 0
x6,8_13 0
x6,8_21 0
x6,8_23 0
x6,8_26 0
x6,8_27 0
x6,8_37 0
x6,8_40 0
x6,8_50 0
x6,9_1 0
x6,9_2 0
x6,9_8 0
x6,9_10 0
x6,9_13 0
x6,9_21 0
x6,9_23 0
x6,9_26 0
x6,9_27 0
x6,9_37 0
x6,9_40 0
x6,9_50 0
x6,10_1 0
x6,10_2 0
x6,10_8 0
x6,10_10 0
x6,10_13 0
x6,10_21 0
x6,10_23 0
x6,10_26 0
x6,10_27 0
x6,10_37 0
x6,10_40 0
x6,10_50 0
x6,11_1 0
x6,11_2 0
x6,11_8 0
x6,11_10 0
x6,11_13 0
x6,11_21 0
x6,11_23 0
x6,11_26 0
x6,11_27 0
x6,11_37 0
x6,11_40 0
x6,11_50 0
x6,12_1 0
x6,12_2 0
x6,12_8 0
x6,12_10 0
x6,12_13 0
x6,12_21 0
x6,12_23 0
x6,12_26 0
x6,12_27 0
x6,12_37 0
x6,12_40 0
x6,12_50 0
x6,13_1 0
x6,13_2 0
x6,13_8 0
x6,13_10 0
x6,13_13 0
x6,13_21 0
x6,13_23 0
x6,13_26 0
x6,13_27 0
x6,13_37 0
x6,13_40 0
x6,13_50 0
x6,14_1 0
x6,14_2 0
x6,14_8 0
x6,14_10 0
x6,14_13 0
x6,14_21 0
x6,14_23 0
x6,14_26 0
x6,14_27 0
x6,14_37 0
x6,14_40 0
x6,14_50 0
x7,8_1 0
x7,8_2 0
x7,8_8 0
x7,8_10 0
x7,8_13 0
x7,8_21 0
x7,8_23 0
x7,8_26 0
x7,8_27 0
x7,8_37 0
x7,8_40 0
x7,8_50 0
x7,9_1 0
x7,9_2 0
x7,9_8 0
x7,9_10 0
x7,9_13 0
x7,9_21 0
x7,9_23 0
x7,9_26 0
x7,9_27 0
x7,9_37 0
x7,9_40 0
x7,9_50 0
x7,10_1 0
x7,10_2 0
x7,10_8 0
x7,10_10 0
x7,10_13 0
x7,10_21 0
x7,10_23 0
x7,10_26 0
x7,10_27 0
x7,10_37 0
x7,10_40 0
x7,10_50 0
x7,11_1 0
x7,11_2 0
x7,11_8 0
x7,11_10 0
x7,11_13 0
x7,11_21 0
x7,11_23 0
x7,11_26 0
x7,11_27 0
x7,11_37 0
x7,11_40 0
x7,11_50 0
x7,12_1 0
x7,12_2 0
x7,12_8 0
x7,12_10 0
x7,12_13 0
x7,12_21 0
x7,12_23 0
x7,12_26 0
x7,12_27 0
x7,12_37 0
x7,12_40 0
x7,12_50 0
x7,13_1 0
x7,13_2 0
x7,13_8 0
x7,13_10 0
x7,13_13 0
x7,13_21 0
x7,13_23 0
x7,13_26 0
x7,13_27 0
x7,13_37 0
x7,13_40 0
x7,13_50 0
x7,14_1 0
x7,14_2 0
x7,14_8 0
x7,14_10 0
x7,14_13 0
x7,14_21 0
x7,14_23 0
x7,14_26 0
x7,14_27 0
x7,14_37 0
x7,14_40 0
x7,14_50 0
x8,9_1 0
x8,9_2 0
x8,9_8 0
x8,9_10 0
x8,9_13 0
x8,9_21 0
x8,9_23 0
x8,9_26 0
x8,9_27 0
x8,9_37 0
x8,9_40 0
x8,9_50 0
x8,10_1 0
x8,10_2 0
x8,10_8 0
x8,10_10 0
x8,10_13 0
x8,10_21 0
x8,10_23 0
x8,10_26 0
x8,10_27 0
x8,10_37 0
x8,10_40 0
x8,10_50 0
x8,11_1 0
x8,11_2 0
x8,11_8 0
x8,11_10 0
x8,11_13 0
x8,11_21 0
x8,11_23 0
x8,11_26 0
x8,11_27 0
x8,11_37 0
x8,11_40 0
x8,11_50 0
x8,12_1 0
x8,12_2 0
x8,12_8 0
x8,12_10 0
x8,12_13 0
x8,12_21 0
x8,12_23 0
x8,12_26 0
x8,12_27 0
x8,12_37 0
x8,12_40 0
x8,12_50 0
x8,13_1 0
x8,13_2 0
x8,13_8 0
x8,13_10 0
x8,13_13 0
x8,13_21 0
x8,13_23 0
x8,13_26 0
x8,13_27 0
x8,13_37 0
x8,13_40 0
x8,13_50 0
x8,14_1 0
x8,14_2 0
x8,14_8 0
x8,14_10 0
x8,14_13 0
x8,14_21 0
x8,14_23 0
x8,14_26 0
x8,14_27 0
x8,14_37 0
x8,14_40 0
x8,14_50 0
x9,10_1 0
x9,10_2 0
x9,10_8 0
x9,10_10 0
x9,10_13 0
x9,10_21 0
x9,10_23 0
x9,10_26 0
x9,10_27 0
x9,10_37 0
x9,10_40 0
x9,10_50 0
x9,11_1 0
x9,11_2 0
x9,11_8 0
x9,11_10 0
x9,11_13 0
x9,11_21 0
x9,11_23 0
x9,11_26 0
x9,11_27 0
x9,11_37 0
x9,11_40 0
x9,11_50 0
x9,12_1 0
x9,12_2 0
x9,12_8 0
x9,12_10 0
x9,12_13 0
x9,12_21 0
x9,12_23 0
x9,12_26 0
x9,12_27 0
x9,12_37 0
x9,12_40 0
x9,12_50 0
x9,13_1 0
x9,13_2 0
x9,13_8 0
x9,13_10 0
x9,13_13 0
x9,13_21 0
x9,13_23 0
x9,13_26 0
x9,13_27 0
x9,13_37 0
x9,13_40 0
x9,13_50 0
x9,14_1 0
x9,14_2 0
x9,14_8 0
x9,14_10 0
x9,14_13 0
x9,14_21 0
x9,14_23 0
x9,14_26 0
x9,14_27 0
x9,14_37 0
x9,14_40 0
x9,14_50 0
x10,11_1 0
x10,11_2 0
x10,11_8 0
x10,11_10 0
x10,11_13 0
x10,11_21 0
x10,11_23 0
x10,11_26 0
x10,11_27 0
x10,11_37 0
x10,11_40 0
x10,11_50 0
x10,12_1 0
x10,12_2 0
x10,12_8 0
x10,12_10 0
x10,12_13 0
x10,12_21 0
x10,12_23 0
x10,12_26 0
x10,12_27 0
x10,12_37 0
x10,12_40 0
x10,12_50 0
x10,13_1 0
x10,13_2 0
x10,13_8 0
x10,13_10 0
x10,13_13 0
x10,13_21 0
x10,13_23 0
x10,13_26 0
x10,13_27 0
x10,13_37 0
x10,13_40 0
x10,13_50 0
x10,14_1 0
x10,14_2 0
x10,14_8 0
x10,14_10 0
x10,14_13 0
x10,14_21 0
x10,14_23 0
x10,14_26 0
x10,14_27 0
x10,14_37 0
x10,14_40 0
x10,14_50 0
x11,12_1 0
x11,12_2 0
x11,12_8 0
x11,12_10 0
x11,12_13 0
x11,12_21 0
x11,12_23 0
x11,12_26 0
x11,12_27 0
x11,12_37 0
x11,12_40 0
x11,12_50 0
x11,13_1 0
x11,13_2 0
x11,13_8 0
x11,13_10 0
x11,13_13 0
x11,13_21 0
x11,13_23 0
x11,13_26 0
x11,13_27 0
x11,13_37 0
x11,13_40 0
x11,13_50 0
x11,14_1 0
x11,14_2 0
x11,14_8 0
x11,14_10 0
x11,14_13 0
x11,14_21 0
x11,14_23 0
x11,14_26 0
x11,14_27 0
x11,14_37 0
x11,14_40 0
x11,14_50 0
x12,13_1 0
x12,13_2 0
x12,13_8 0
x12,13_10 0
x12,13_13 0
x12,13_21 0
x12,13_23 0
x12,13_26 0
x12,13_27 0
x12,13_37 0
x12,13_40 0
x12,13_50 0
x12,14_1 0
x12,14_2 0
x12,14_8 0
x12,14_10 0
x12,14_13 0
x12,14_21 0
x12,14_23 0
x12,14_26 0
x12,14_27 0
x12,14_37 0
x12,14_40 0
x12,14_50 0
x13,14_1 0
x13,14_2 0
x13,14_8 0
x13,14_10 0
x13,14_13 0
x13,14_21 0
x13,14_23 0
x13,14_26 0
x13,14_27 0
x13,14_37 0
x13,14_40 0
x13,14_50 0
z0 1
z1 1
z2 1
z3 1
z4 1
z5 1
z6 1
z7 0
z8 0
z9 0
z10 0
z11 0
z12 0
z13 0
z14 0
p0 19
p1 21
p2 29
p3 42
p4 56
p5 68
p6 69
p7 70
p8 71
p9 72
p10 73
p11 74
p12 75
p13 76
p14 77
